(set-option :produce-models true)
(set-logic QF_UF)
(declare-fun p53() Bool)
(declare-fun p33() Bool)
(declare-fun p58() Bool)
(declare-fun p0() Bool)
(declare-fun p2() Bool)
(declare-fun p44() Bool)
(declare-fun p10() Bool)
(declare-fun p20() Bool)
(declare-fun p11() Bool)
(declare-fun p54() Bool)
(declare-fun p13() Bool)
(declare-fun p12() Bool)
(declare-fun p38() Bool)
(declare-fun p27() Bool)
(declare-fun p41() Bool)
(declare-fun p51() Bool)
(declare-fun p3() Bool)
(declare-fun p57() Bool)
(declare-fun p28() Bool)
(declare-fun p24() Bool)
(declare-fun p31() Bool)
(declare-fun p1() Bool)
(declare-fun p9() Bool)
(declare-fun p47() Bool)
(declare-fun p40() Bool)
(declare-fun p52() Bool)
(declare-fun p32() Bool)
(declare-fun p4() Bool)
(declare-fun p8() Bool)
(declare-fun p26() Bool)
(declare-fun p37() Bool)
(declare-fun p36() Bool)
(declare-fun p45() Bool)
(declare-fun p5() Bool)
(declare-fun p39() Bool)
(declare-fun p42() Bool)
(declare-fun p14() Bool)
(declare-fun p19() Bool)
(declare-fun p15() Bool)
(declare-fun p43() Bool)
(declare-fun p34() Bool)
(declare-fun p50() Bool)
(declare-fun p46() Bool)
(declare-fun p17() Bool)
(declare-fun p16() Bool)
(declare-fun p49() Bool)
(declare-fun p30() Bool)
(declare-fun p23() Bool)
(declare-fun p6() Bool)
(declare-fun p21() Bool)
(declare-fun p59() Bool)
(declare-fun p18() Bool)
(declare-fun p7() Bool)
(declare-fun p56() Bool)
(declare-fun p25() Bool)
(declare-fun p35() Bool)
(declare-fun p29() Bool)
(declare-fun p55() Bool)
(declare-fun p48() Bool)
(declare-fun p22() Bool)
(assert
(and (or (not p53) p33 p58) (or p0 p2 p44) (or (not p10) (not p20) p11) (or (not p54) p13 (not p12)) (or (not p53) p38 (not p33)) (or (not p27) (not p41) p51) (or p3 (not p57) (not p0)) (or (not p10) p28 (not p24)) (or p31 (not p1) (not p9)) (or p20 (not p54) p57) (or (not p47) (not p40) (not p10)) (or p11 p52 p20) (or (not p11) (not p32) p32) (or (not p38) (not p52) p4) (or (not p8) (not p26) (not p37)) (or p36 (not p45) (not p5)) (or (not p0) p11 (not p39)) (or p42 p3 p5) (or p33 (not p45) (not p14)) (or (not p12) (not p19) (not p12)) (or p14 p58 (not p33)) (or p45 p15 (not p37)) (or p26 (not p51) (not p43)) (or (not p37) (not p11) p32) (or p15 (not p24) (not p42)) (or (not p54) (not p34) p50) (or p40 p32 p57) (or (not p46) p47 (not p47)) (or p4 p10 (not p17)) (or p16 p54 p57) (or p27 p34 p49) (or (not p42) p30 (not p46)) (or p47 p17 p23) (or p44 (not p6) (not p34)) (or (not p15) p41 (not p21)) (or p26 (not p6) (not p15)) (or (not p21) p12 p59) (or p34 (not p36) (not p59)) (or (not p37) (not p58) p49) (or p27 p14 p45) (or p18 (not p5) p7) (or p43 (not p16) (not p7)) (or p56 p1 (not p30)) (or p54 (not p51) p30) (or p16 (not p44) (not p17)) (or p32 p25 p15) (or p26 p0 (not p23)) (or p2 p35 (not p49)) (or (not p29) (not p9) (not p43)) (or p10 (not p42) (not p55)) (or (not p5) p42 (not p56)) (or (not p58) p24 (not p43)) (or (not p12) (not p59) (not p4)) (or (not p13) p45 p34) (or (not p39) p12 (not p41)) (or (not p48) p4 (not p33)) (or p8 p36 p10) (or (not p27) p43 (not p28)) (or p50 (not p15) (not p15)) (or (not p46) p58 p53) (or p33 p43 (not p17)) (or (not p6) p10 (not p37)) (or p34 p33 (not p13)) (or (not p37) p31 p17) (or p44 (not p5) p6) (or (not p59) (not p39) p43) (or (not p44) (not p10) p18) (or (not p37) p27 (not p57)) (or (not p45) (not p51) (not p19)) (or (not p26) p37 p21) (or p21 p26 (not p15)) (or p27 p49 (not p41)) (or p23 p29 (not p58)) (or p59 (not p47) (not p8)) (or p28 p1 (not p41)) (or p38 p21 p39) (or (not p53) (not p57) (not p59)) (or p30 p39 (not p3)) (or (not p33) (not p26) p13) (or (not p44) p52 (not p43)) (or (not p32) (not p23) p43) (or (not p15) (not p32) p50) (or p43 p14 (not p43)) (or p2 (not p24) (not p0)) (or p54 (not p57) (not p53)) (or (not p25) (not p55) (not p52)) (or (not p29) (not p10) (not p41)) (or p40 (not p0) p59) (or p45 p50 p51) (or p28 (not p22) p14) (or p24 p36 p5) (or (not p10) p27 (not p43)) (or (not p8) (not p32) (not p12)) (or p39 p21 p52) (or p1 p42 p35) (or p23 p16 p25) (or (not p43) p19 p6) (or p41 p26 p47) (or (not p14) p8 (not p22)) (or (not p0) p28 p48) (or p6 (not p18) (not p3)) (or p52 (not p58) (not p29)) (or (not p44) (not p5) p25) (or p33 (not p16) (not p56)) (or p31 p5 p49) (or p4 (not p43) p22) (or p24 p37 (not p53)) (or p21 (not p7) (not p26)) (or p41 p8 (not p55)) (or p29 p26 p52) (or (not p18) p46 p18) (or (not p17) p16 p7) (or p28 (not p0) p14) (or (not p20) p34 p54) (or (not p36) (not p41) (not p20)) (or p15 (not p6) (not p39)) (or p53 p16 (not p6)) (or (not p28) p55 (not p42)) (or (not p51) p24 p48) (or (not p52) p17 (not p7)) (or p22 (not p19) p55) (or p1 p25 p51) (or p9 p3 p39) (or (not p31) p25 (not p3)) (or p28 p12 (not p4)) (or p27 p6 p27) (or p19 (not p28) p51) (or p58 (not p38) p1) (or (not p26) (not p18) (not p43)) (or p4 (not p46) p54) (or (not p29) p43 (not p33)) (or (not p22) p42 (not p14)) (or (not p20) p47 p29) (or (not p57) p33 p29) (or p24 (not p10) p56) (or p51 (not p14) p39) (or (not p32) (not p45) (not p37)) (or p55 (not p8) (not p38)) (or p0 p45 (not p44)) (or (not p59) p33 (not p21)) (or (not p0) (not p17) (not p5)) (or p33 (not p44) p15) (or p8 p44 (not p27)) (or (not p40) p48 (not p14)) (or p48 p48 p57) (or p50 (not p44) p3) (or (not p59) p7 p13) (or p5 (not p55) (not p4)) (or p31 p39 p45) (or (not p48) p35 p57) (or p57 p15 p17) (or (not p29) (not p8) (not p40)) (or p54 p30 (not p5)) (or p5 (not p34) (not p9)) (or (not p39) (not p7) p58) (or p48 p29 p3) (or (not p5) p40 p43) (or (not p55) (not p33) (not p21)) (or p12 (not p48) p44) (or p35 p41 p14) (or (not p48) p11 p34) (or (not p35) p13 (not p12)) (or p0 (not p35) p4) (or p16 (not p9) p44) (or p41 p23 (not p6)) (or (not p39) (not p21) (not p34)) (or (not p3) p13 (not p51)) (or (not p39) p57 (not p29)) (or (not p27) p14 (not p57)) (or p23 (not p37) p48) (or p35 (not p17) (not p30)) (or (not p38) (not p2) (not p10)) (or p14 (not p27) p21) (or (not p23) p43 (not p16)) (or p59 p51 (not p11)) (or (not p20) (not p18) (not p27)) (or p58 (not p31) (not p47)) (or (not p20) (not p46) p29) (or (not p45) (not p8) p8) (or (not p5) (not p58) p58) (or p43 p10 p16) (or (not p32) p38 (not p8)) (or p11 p10 p6) (or p40 (not p5) (not p38)) (or p51 (not p35) (not p38)) (or p33 p26 p7) (or (not p26) (not p42) (not p17)) (or (not p17) (not p34) (not p20)) (or (not p28) p12 p31) (or (not p33) (not p26) (not p31)) (or p16 (not p24) p3) (or (not p21) (not p49) (not p46)) (or (not p52) p16 (not p10)) (or p52 p45 p53) (or (not p40) (not p24) (not p10)) (or (not p4) p24 p25) (or p43 p2 (not p19)) (or (not p36) p31 p18) (or (not p31) p27 (not p35)) (or p38 p4 p18) (or (not p8) (not p58) p17) (or (not p33) p35 p44) (or (not p38) (not p41) p17) (or p12 (not p14) p30) (or (not p57) p39 (not p35)) (or (not p37) p34 p58) (or p27 (not p47) p55) (or p18 (not p31) (not p54)) (or p0 p10 p48) (or p34 p44 p44) (or p18 p28 (not p3)) (or p38 (not p48) (not p18)) (or p38 (not p59) p40) (or p28 (not p17) (not p12)) (or p9 (not p38) (not p25)) (or p43 p1 (not p37)) (or (not p31) (not p22) p29) (or (not p40) p17 (not p24)) (or (not p28) p30 (not p12)) (or (not p31) (not p9) (not p18)) (or (not p1) p59 p18) (or p42 p50 p40) (or (not p55) (not p44) p23) (or (not p15) p38 (not p31)) (or p27 p26 (not p56)) (or p59 (not p35) p33) (or p13 p37 p26) (or p28 p51 (not p35)) (or (not p58) p11 (not p34)) (or (not p30) (not p9) p25) (or p22 (not p15) p32) (or (not p24) (not p43) (not p34)) (or p27 p19 (not p42)) (or (not p5) p18 (not p30)) (or (not p9) (not p45) (not p14)) (or p12 p30 p9) (or p46 p49 p14) (or (not p8) p25 p6) (or (not p36) (not p44) (not p11)) (or p22 (not p15) (not p20)) (or (not p7) p35 (not p25)) (or (not p6) p17 (not p8)) (or p2 (not p14) p16) (or p12 (not p9) (not p0)) (or p39 (not p32) (not p5)) (or (not p52) p55 p41) (or (not p44) p5 (not p18)) (or (not p50) p42 (not p1)) (or p0 (not p23) p11) (or p27 p51 p2) (or (not p43) p0 p19) (or (not p24) p34 (not p33)))
)
(check-sat)
(get-model)
